%%%mzn-stat: initTime=0.004458567
%%%mzn-stat: objective=323
%%%mzn-stat: nodes=825
%%%mzn-stat: restarts=0
%%%mzn-stat: peakDepth=74
%%%mzn-stat: solveTime=0.044691481
%%%mzn-stat: variables=396
%%%mzn-stat: propagators=271
%%%mzn-stat: failures=407
%%%mzn-stat: propagations=72846
%%%mzn-stat: nogoods=407
%%%mzn-stat: AverageConflictSize=5.963144963144964
%%%mzn-stat: NumUnitNogoodsLearned=322
%%%mzn-stat: AverageLearnedNogoodLength=3.3194103194103195
%%%mzn-stat: AverageBacktrackAmount=0
%%%mzn-stat: AverageLbd=1.5675675675675675
%%%mzn-stat-end
maxleg = 323;
succ = array1d(1..20,[5, 4, 7, 8, 2, 18, 11, 10, 19, 14, 13, 17, 6, 20, 1, 12, 9, 15, 3, 16]);
% time elapsed: 1.54 s
----------
==========
% time elapsed: 1.54 s
%%%mzn-stat: initTime=0.004458567
%%%mzn-stat: objective=323
%%%mzn-stat: nodes=825
%%%mzn-stat: restarts=0
%%%mzn-stat: peakDepth=74
%%%mzn-stat: solveTime=0.044695309
%%%mzn-stat: variables=396
%%%mzn-stat: propagators=271
%%%mzn-stat: failures=407
%%%mzn-stat: propagations=72846
%%%mzn-stat: nogoods=407
%%%mzn-stat: AverageConflictSize=5.963144963144964
%%%mzn-stat: NumUnitNogoodsLearned=322
%%%mzn-stat: AverageLearnedNogoodLength=3.3194103194103195
%%%mzn-stat: AverageBacktrackAmount=0
%%%mzn-stat: AverageLbd=1.5675675675675675
%%%mzn-stat-end
